(set-logic QF_BV)
(declare-fun _substvar_5777_ () (_ BitVec 210))
(declare-fun shift2 () (_ BitVec 210))
(define-fun bitsumhelper ((x (_ BitVec 30))) (_ BitVec 30) (bvand x (bvsub x (_ bv1 30))))
(assert (= (_ bv0 30) (bitsumhelper (bitsumhelper (bitsumhelper (bitsumhelper (bitsumhelper (bitsumhelper (bitsumhelper (concat (_ bv0 1) (concat (_ bv0 1) (concat ((_ extract 14 14) _substvar_5777_) (concat ((_ extract 21 21) _substvar_5777_) (concat ((_ extract 28 28) _substvar_5777_) (concat ((_ extract 35 35) _substvar_5777_) (concat ((_ extract 42 42) _substvar_5777_) (concat ((_ extract 49 49) _substvar_5777_) (concat ((_ extract 56 56) _substvar_5777_) (concat ((_ extract 63 63) _substvar_5777_) (concat ((_ extract 70 70) _substvar_5777_) (concat ((_ extract 77 77) _substvar_5777_) (concat ((_ extract 84 84) _substvar_5777_) (concat ((_ extract 91 91) _substvar_5777_) (concat ((_ extract 98 98) _substvar_5777_) (concat ((_ extract 105 105) _substvar_5777_) (concat ((_ extract 112 112) _substvar_5777_) (concat ((_ extract 119 119) _substvar_5777_) (concat ((_ extract 126 126) _substvar_5777_) (concat ((_ extract 133 133) _substvar_5777_) (concat ((_ extract 140 140) _substvar_5777_) (concat ((_ extract 147 147) _substvar_5777_) (concat ((_ extract 154 154) _substvar_5777_) (concat ((_ extract 161 161) _substvar_5777_) (concat ((_ extract 168 168) _substvar_5777_) (concat ((_ extract 175 175) _substvar_5777_) (concat ((_ extract 182 182) _substvar_5777_) (concat ((_ extract 189 189) _substvar_5777_) (concat ((_ extract 196 196) _substvar_5777_) ((_ extract 203 203) _substvar_5777_)))))))))))))))))))))))))))))))))))))))
(assert (= (_ bv0 30) (bitsumhelper (bitsumhelper (bitsumhelper (bitsumhelper (concat (_ bv0 1) (concat ((_ extract 8 8) _substvar_5777_) (concat (_ bv0 1) (concat (_ bv0 1) (concat (_ bv0 1) (concat ((_ extract 36 36) _substvar_5777_) (concat ((_ extract 43 43) _substvar_5777_) (concat (_ bv0 1) (concat (_ bv0 1) (concat ((_ extract 64 64) _substvar_5777_) (concat ((_ extract 71 71) _substvar_5777_) (concat ((_ extract 78 78) _substvar_5777_) (concat ((_ extract 85 85) _substvar_5777_) (concat ((_ extract 92 92) _substvar_5777_) (concat ((_ extract 99 99) _substvar_5777_) (concat ((_ extract 106 106) _substvar_5777_) (concat ((_ extract 113 113) _substvar_5777_) (concat ((_ extract 120 120) _substvar_5777_) (concat (_ bv0 1) (concat (_ bv0 1) (concat (_ bv0 1) (concat (_ bv0 1) (concat (_ bv0 1) (concat (_ bv0 1) (concat ((_ extract 169 169) _substvar_5777_) (concat ((_ extract 176 176) _substvar_5777_) (concat ((_ extract 183 183) _substvar_5777_) (_ bv0 3))))))))))))))))))))))))))))))))))
(assert (= (_ bv0 30) (bitsumhelper (bitsumhelper (bitsumhelper (concat (_ bv0 1) (concat ((_ extract 9 9) _substvar_5777_) (concat ((_ extract 16 16) _substvar_5777_) (concat ((_ extract 23 23) _substvar_5777_) (concat ((_ extract 30 30) _substvar_5777_) (concat ((_ extract 37 37) _substvar_5777_) (concat ((_ extract 44 44) _substvar_5777_) (concat (_ bv0 1) (concat ((_ extract 58 58) _substvar_5777_) (concat ((_ extract 65 65) _substvar_5777_) (concat ((_ extract 72 72) _substvar_5777_) (concat ((_ extract 79 79) _substvar_5777_) (concat ((_ extract 86 86) _substvar_5777_) (concat ((_ extract 93 93) _substvar_5777_) (concat ((_ extract 100 100) _substvar_5777_) (concat ((_ extract 107 107) _substvar_5777_) (concat ((_ extract 114 114) _substvar_5777_) (concat ((_ extract 121 121) _substvar_5777_) (concat ((_ extract 128 128) _substvar_5777_) (concat ((_ extract 135 135) _substvar_5777_) (concat ((_ extract 142 142) _substvar_5777_) (concat ((_ extract 149 149) _substvar_5777_) (concat ((_ extract 156 156) _substvar_5777_) (concat ((_ extract 163 163) _substvar_5777_) (concat (_ bv0 1) (concat (_ bv0 1) (concat ((_ extract 184 184) _substvar_5777_) (concat ((_ extract 191 191) _substvar_5777_) (concat ((_ extract 198 198) _substvar_5777_) ((_ extract 205 205) _substvar_5777_)))))))))))))))))))))))))))))))))))
(assert (not (= (_ bv0 30) (bitsumhelper (bitsumhelper (bitsumhelper (bitsumhelper (bitsumhelper (bitsumhelper (concat ((_ extract 3 3) _substvar_5777_) (concat ((_ extract 10 10) _substvar_5777_) (concat (_ bv0 1) (concat ((_ extract 24 24) _substvar_5777_) (concat (_ bv0 1) (concat ((_ extract 38 38) _substvar_5777_) (concat ((_ extract 45 45) _substvar_5777_) (concat (_ bv0 1) (concat ((_ extract 59 59) _substvar_5777_) (concat ((_ extract 66 66) _substvar_5777_) (concat ((_ extract 73 73) _substvar_5777_) (concat ((_ extract 80 80) _substvar_5777_) (concat ((_ extract 87 87) _substvar_5777_) (concat ((_ extract 94 94) _substvar_5777_) (concat ((_ extract 101 101) _substvar_5777_) (concat ((_ extract 108 108) _substvar_5777_) (concat ((_ extract 115 115) _substvar_5777_) (concat ((_ extract 122 122) _substvar_5777_) (concat ((_ extract 129 129) _substvar_5777_) (concat ((_ extract 136 136) _substvar_5777_) (concat ((_ extract 143 143) _substvar_5777_) (concat ((_ extract 150 150) _substvar_5777_) (concat ((_ extract 157 157) _substvar_5777_) (_ bv0 7)))))))))))))))))))))))))))))))))
(assert (= (_ bv0 30) (bitsumhelper (bitsumhelper (bitsumhelper (bitsumhelper (bitsumhelper (bitsumhelper (concat ((_ extract 4 4) _substvar_5777_) (concat ((_ extract 11 11) _substvar_5777_) (concat ((_ extract 18 18) _substvar_5777_) (concat ((_ extract 25 25) _substvar_5777_) (concat ((_ extract 32 32) _substvar_5777_) (concat ((_ extract 39 39) _substvar_5777_) (concat ((_ extract 46 46) _substvar_5777_) (concat ((_ extract 53 53) _substvar_5777_) (concat ((_ extract 60 60) _substvar_5777_) (concat ((_ extract 67 67) _substvar_5777_) (concat ((_ extract 74 74) _substvar_5777_) (concat ((_ extract 81 81) _substvar_5777_) (concat ((_ extract 88 88) _substvar_5777_) (concat ((_ extract 95 95) _substvar_5777_) (concat ((_ extract 102 102) _substvar_5777_) (concat ((_ extract 109 109) _substvar_5777_) (concat ((_ extract 116 116) _substvar_5777_) (concat (_ bv0 1) (concat ((_ extract 130 130) _substvar_5777_) (concat ((_ extract 137 137) _substvar_5777_) (concat ((_ extract 144 144) _substvar_5777_) (concat ((_ extract 151 151) _substvar_5777_) (concat (_ bv0 1) (concat (_ bv0 1) (concat ((_ extract 172 172) _substvar_5777_) (concat ((_ extract 179 179) _substvar_5777_) (concat ((_ extract 186 186) _substvar_5777_) (concat ((_ extract 193 193) _substvar_5777_) (concat ((_ extract 200 200) _substvar_5777_) ((_ extract 207 207) _substvar_5777_))))))))))))))))))))))))))))))))))))))
(assert (= (_ bv0 30) (bitsumhelper (bitsumhelper (bitsumhelper (bitsumhelper (bitsumhelper (bitsumhelper (bitsumhelper (concat (_ bv0 1) (concat (_ bv0 1) (concat (_ bv0 1) (concat (_ bv0 1) (concat ((_ extract 33 33) _substvar_5777_) (concat ((_ extract 40 40) _substvar_5777_) (concat ((_ extract 47 47) _substvar_5777_) (concat ((_ extract 54 54) _substvar_5777_) (concat ((_ extract 61 61) _substvar_5777_) (concat ((_ extract 68 68) _substvar_5777_) (concat (_ bv0 1) (concat ((_ extract 82 82) _substvar_5777_) (concat ((_ extract 89 89) _substvar_5777_) (concat ((_ extract 96 96) _substvar_5777_) (concat ((_ extract 103 103) _substvar_5777_) (concat ((_ extract 110 110) _substvar_5777_) (concat ((_ extract 117 117) _substvar_5777_) (concat (_ bv0 1) (concat ((_ extract 131 131) _substvar_5777_) (concat ((_ extract 138 138) _substvar_5777_) (concat ((_ extract 145 145) _substvar_5777_) (concat ((_ extract 152 152) _substvar_5777_) (concat ((_ extract 159 159) _substvar_5777_) (concat ((_ extract 166 166) _substvar_5777_) (concat ((_ extract 173 173) _substvar_5777_) (concat ((_ extract 180 180) _substvar_5777_) (_ bv0 4))))))))))))))))))))))))))))))))))))
(check-sat)
(exit)
